100
    1   437   437
    2   271   271
    3   253   253
    4   376   376
    5   175   175
    6   377   377
    7   272   272
    8   205   205
    9   165   165
   10   491   491
   11   219   219
   12   282   282
   13   254   254
   14   271   271
   15   457   457
   16   133   133
   17   326   326
   18   460   460
   19   367   367
   20   332   332
   21   357   357
   22   148   148
   23    68    68
   24   336   336
   25    53    53
   26   180   180
   27   317   317
   28    59    59
   29    94    94
   30   268   268
   31   214   214
   32   449   449
   33   458   458
   34   179   179
   35    93    93
   36    47    47
   37   438   438
   38   396   396
   39   315   315
   40   451   451
   41   470   470
   42    43    43
   43    45    45
   44    32    32
   45   205   205
   46   189   189
   47   232   232
   48   173   173
   49   138   138
   50   390   390
   51   421   421
   52   180   180
   53    35    35
   54   361   361
   55   165   165
   56   337   337
   57   183   183
   58   123   123
   59    16    16
   60    62    62
   61   303   303
   62    70    70
   63   329   329
   64    45    45
   65   477   477
   66   317   317
   67    98    98
   68   300   300
   69   301   301
   70   101   101
   71   210   210
   72    42    42
   73    29    29
   74   286   286
   75   114   114
   76   348   348
   77   321   321
   78   408   408
   79   356   356
   80   241   241
   81    76    76
   82    73    73
   83   195   195
   84   115   115
   85   331   331
   86   243   243
   87    43    43
   88   344   344
   89   460   460
   90   104   104
   91   256   256
   92    48    48
   93   479   479
   94    86    86
   95   155   155
   96    30    30
   97   488   488
   98   266   266
   99   133   133
  100   367   367
15887
